set C := 1 2 3 4 5 6 7 8 9 10;

param q :=
    1 36.67
    2 27.61
    3 34.78
    4 47.58
    5 18.79
    6 42.44
    7 47.92
    8 39.50
    9 34.65
    10 38.34;
param ca :=
    1 228.46
    2 154.25
    3 245.39
    4 159.42
    5 219.85
    6 213.41
    7 233.26
    8 158.81
    9 158.56
    10 197.19;
param cc :=
    1 31.83
    2 46.33
    3 45.91
    4 36.67
    5 39.06
    6 44.12
    7 43.83
    8 31.24
    9 49.03
    10 49.12;
param cp :=
    1 9.21
    2 10.21
    3 5.60
    4 6.66
    5 9.08
    6 7.39
    7 6.05
    8 6.07
    9 5.31
    10 6.33;
param sMin := 0;
param sMax := 80;

namespace t0
{
    set A := 1 2;
    set AAnt :=;
    set P := 3 4 5 6 7 8 9 10;
    set S := 1;

    param p :=
        1 1.0000000000;
    param d :=
        1 18.54;
    param h := 1;
    param s0 := 20;
}

namespace t1
{
    set AAnt := 1 2;
    set P := 3 4 5 6 7 8 9 10;
    set PAnt := 3 4 5 6 7 8 9 10;
    set S := 1 2;

    param p :=
        1 0.7033784086
        2 0.2966215914;
    param d :=
        1 41.45
        2 41.05;
    param h := 1;
}

namespace t2
{
    set A2Ant := 1 2;
    set P := 3 4 5 6 7 8 9 10;
    set PAnt := 3 4 5 6 7 8 9 10;
    set S := 1 2;

    param p :=
        1 0.4808194602
        2 0.5191805398;
    param d :=
        1 49.40
        2 16.52;
    param h := 1;
}

namespace t3
{
    set P := 3 4 5 6 7 8 9 10;
    set PAnt := 3 4 5 6 7 8 9 10;
    set S := 1 2;

    param p :=
        1 0.2885624354
        2 0.7114375646;
    param d :=
        1 37.46
        2 22.45;
    param h := 1;
}

namespace t4
{
    set PAnt := 3 4 5 6 7 8 9 10;
    set S := 1 2;

    param p :=
        1 0.6842903280
        2 0.3157096720;
    param d :=
        1 48.02
        2 47.28;
    param h := 1;
}
